<number of tasks>
50

<cycle time>
1000

<order strength>
0.196


<task times>
1 639
2 532
3 625
4 280
5 582
6 473
7 478
8 329
9 267
10 552
11 401
12 448
13 446
14 595
15 524
16 368
17 462
18 616
19 624
20 693
21 456
22 304
23 307
24 721
25 467
26 419
27 526
28 541
29 334
30 271
31 490
32 354
33 540
34 379
35 435
36 538
37 432
38 521
39 376
40 553
41 467
42 604
43 549
44 509
45 488
46 459
47 381
48 623
49 607
50 646

<precedence relations>
1,8
1,9
2,37
2,41
3,11
3,12
4,10
5,7
7,35
8,14
9,15
10,16
10,18
10,33
11,19
11,20
12,13
12,17
13,35
14,21
15,23
16,22
18,26
19,25
20,24
21,29
22,30
23,32
23,33
24,27
24,34
25,31
26,28
26,38
27,35
28,35
29,36
30,38
31,39
32,37
32,41
33,40
33,50
35,42
35,43
35,44
35,45
35,46
36,47
41,48
45,50
47,49

<end>
